; Copyright (c) 2026 The RIINA Authors. All rights reserved.
; Auto-generated from 02_FORMAL/coq/termination/SizedTypes.v (16 validations)
; Generated by scripts/generate-full-stack.py
;
; Translation Validation for SizedTypes
; Layer 9: Verifies compiler backend preserves formal semantics.
; Each assertion checks source IR ≡ target code for a proven property.

(set-logic QF_LIA)
(set-option :produce-models true)

; IR node representation
(declare-sort IRNode 0)
(declare-sort TargetNode 0)

; sized_ty_base: source semantics (matches Coq)
(declare-fun source_sized_ty_base () Bool)
(declare-fun target_sized_ty_base () Bool)
(assert (= source_sized_ty_base target_sized_ty_base))

; sized_ty_bound: source semantics (matches Coq)
(declare-fun source_sized_ty_bound () Bool)
(declare-fun target_sized_ty_bound () Bool)
(assert (= source_sized_ty_bound target_sized_ty_bound))

; terminates: source semantics (matches Coq)
(declare-fun source_terminates () Bool)
(declare-fun target_terminates () Bool)
(assert (= source_terminates target_terminates))

; step_terminates: source semantics (matches Coq)
(declare-fun source_step_terminates () Bool)
(declare-fun target_step_terminates () Bool)
(assert (= source_step_terminates target_step_terminates))

; expr_size_pos: translation preserves property (matches Coq: Lemma)
(declare-fun source_expr_size_pos () Bool)
(declare-fun target_expr_size_pos () Bool)
(assert (= source_expr_size_pos target_expr_size_pos))

; value_prod_decompose: translation preserves property (matches Coq: Lemma)
(declare-fun source_value_prod_decompose () Bool)
(declare-fun target_value_prod_decompose () Bool)
(assert (= source_value_prod_decompose target_value_prod_decompose))

; value_sum_decompose: translation preserves property (matches Coq: Lemma)
(declare-fun source_value_sum_decompose () Bool)
(declare-fun target_value_sum_decompose () Bool)
(assert (= source_value_sum_decompose target_value_sum_decompose))

; value_bool_decompose: translation preserves property (matches Coq: Lemma)
(declare-fun source_value_bool_decompose () Bool)
(declare-fun target_value_bool_decompose () Bool)
(assert (= source_value_bool_decompose target_value_bool_decompose))

; value_fn_decompose: translation preserves property (matches Coq: Lemma)
(declare-fun source_value_fn_decompose () Bool)
(declare-fun target_value_fn_decompose () Bool)
(assert (= source_value_fn_decompose target_value_fn_decompose))

; fst_steps_once: translation preserves property (matches Coq: Lemma)
(declare-fun source_fst_steps_once () Bool)
(declare-fun target_fst_steps_once () Bool)
(assert (= source_fst_steps_once target_fst_steps_once))

; snd_steps_once: translation preserves property (matches Coq: Lemma)
(declare-fun source_snd_steps_once () Bool)
(declare-fun target_snd_steps_once () Bool)
(assert (= source_snd_steps_once target_snd_steps_once))

; case_inl_steps_once: translation preserves property (matches Coq: Lemma)
(declare-fun source_case_inl_steps_once () Bool)
(declare-fun target_case_inl_steps_once () Bool)
(assert (= source_case_inl_steps_once target_case_inl_steps_once))

; case_inr_steps_once: translation preserves property (matches Coq: Lemma)
(declare-fun source_case_inr_steps_once () Bool)
(declare-fun target_case_inr_steps_once () Bool)
(assert (= source_case_inr_steps_once target_case_inr_steps_once))

; if_true_steps_once: translation preserves property (matches Coq: Lemma)
(declare-fun source_if_true_steps_once () Bool)
(declare-fun target_if_true_steps_once () Bool)
(assert (= source_if_true_steps_once target_if_true_steps_once))

; if_false_steps_once: translation preserves property (matches Coq: Lemma)
(declare-fun source_if_false_steps_once () Bool)
(declare-fun target_if_false_steps_once () Bool)
(assert (= source_if_false_steps_once target_if_false_steps_once))

; let_value_steps_once: translation preserves property (matches Coq: Lemma)
(declare-fun source_let_value_steps_once () Bool)
(declare-fun target_let_value_steps_once () Bool)
(assert (= source_let_value_steps_once target_let_value_steps_once))

; handle_value_steps_once: translation preserves property (matches Coq: Lemma)
(declare-fun source_handle_value_steps_once () Bool)
(declare-fun target_handle_value_steps_once () Bool)
(assert (= source_handle_value_steps_once target_handle_value_steps_once))

; app_lam_steps_once: translation preserves property (matches Coq: Lemma)
(declare-fun source_app_lam_steps_once () Bool)
(declare-fun target_app_lam_steps_once () Bool)
(assert (= source_app_lam_steps_once target_app_lam_steps_once))

; step_to_multi: translation preserves property (matches Coq: Lemma)
(declare-fun source_step_to_multi () Bool)
(declare-fun target_step_to_multi () Bool)
(assert (= source_step_to_multi target_step_to_multi))

; multi_step_trans: translation preserves property (matches Coq: Lemma)
(declare-fun source_multi_step_trans () Bool)
(declare-fun target_multi_step_trans () Bool)
(assert (= source_multi_step_trans target_multi_step_trans))

; Verify all translation validations are satisfiable
(check-sat)
(exit)
